%nprocshared=16
%chk=ts.chk
# UMP2/6-31G(D) FORCE

Title Card Required

1 2
 C                  1.15389200    0.78489900    0.00000100
 H                  1.48296200    1.21863400   -0.94582300
 H                  1.48291100    1.21861900    0.94585000
 C                 -0.08787000   -0.00978700   -0.00003800
 C                 -1.52418200    0.25214100   -0.00001000
 H                 -2.09289300   -0.67816600   -0.00024600
 H                 -1.77055500    0.85958300    0.88031500
 H                 -1.77069000    0.86019000   -0.87985800
 O                  0.47243800   -1.14452000    0.00000200
 H                  1.63771500   -0.48621000    0.00003500

