%nproc=2
%chk=ts.chk
# PM6 em=gd3 force

Title Card Required

1 1
 C      -0.57215600     -0.22963700      0.42032200
 H      -0.44597500     -0.39745800      1.51303400
 C       0.59199700     -0.21528500     -0.42724800
 C      -1.93305300     -0.53886200     -0.08710200
 H      -2.18100200     -1.60873800      0.08783800
 H      -2.72919900      0.02590100      0.43437000
 H      -2.08729900     -0.37118800     -1.16566100
 C       1.95007100     -0.51386200      0.08970000
 H       2.16644100     -1.60263800     -0.00117500
 H       2.75910700     -0.02306800     -0.48388000
 H       2.12252100     -0.27203800      1.15124400
 C      -0.04065300      1.35357500     -0.00872100
 H      -0.33722400      1.82632400      0.96204100
 H       0.95831600      1.85734600     -0.08693700
 H      -0.68036900      1.77461800     -0.80571700
 H       0.47744800     -0.34463700     -1.52685900

